100
    1    31    31
    2    42    42
    3    42    42
    4    42    42
    5     6     6
    6    18    18
    7    25    25
    8    18    18
    9    14    14
   10    27    27
   11    13    13
   12     7     7
   13    25    25
   14    17    17
   15    41    41
   16    19    19
   17    19    19
   18    44    44
   19    12    12
   20    34    34
   21    25    25
   22    37    37
   23    37    37
   24    27    27
   25    10    10
   26    49    49
   27    36    36
   28    30    30
   29     6     6
   30     9     9
   31    46    46
   32    50    50
   33     7     7
   34    30    30
   35    18    18
   36    38    38
   37    29    29
   38    36    36
   39     8     8
   40    19    19
   41     1     1
   42     3     3
   43     3     3
   44     9     9
   45    38    38
   46    40    40
   47    50    50
   48    46    46
   49    32    32
   50     7     7
   51    20    20
   52    20    20
   53    24    24
   54    34    34
   55     7     7
   56    47    47
   57    15    15
   58    36    36
   59    47    47
   60    28    28
   61    19    19
   62    11    11
   63    27    27
   64     6     6
   65    35    35
   66    24    24
   67    35    35
   68    25    25
   69     6     6
   70    39    39
   71    15    15
   72     3     3
   73    48    48
   74    35    35
   75    14    14
   76    33    33
   77     2     2
   78     8     8
   79    30    30
   80    47    47
   81     3     3
   82    18    18
   83    13    13
   84    29    29
   85    48    48
   86    49    49
   87     9     9
   88     3     3
   89    25    25
   90    28    28
   91     6     6
   92    11    11
   93    21    21
   94    36    36
   95    15    15
   96    34    34
   97    31    31
   98    12    12
   99     2     2
  100    37    37
407
